graphene+Na                             
   1.00000000000000     
     9.8742351532000008    0.0000000000000000    0.0000000000000000
    -4.9371175766000004    8.5513384856000005    0.0000000000000000
     0.0000000000000000    0.0000000000000000   20.0000000000000000
   C    Na   O    H 
    32     1     1     2
Selective dynamics
Direct
  0.1664751920000000  0.0831508639999967  0.5000000000000000   F   F   F
  0.4166753590000027  0.0831507589999987  0.4999743400000014   F   F   F
  0.6667165160000010  0.0833587050000020  0.5000000000000000   F   F   F
  0.9166418309999997  0.0833582579999970  0.5000861879999974   F   F   F
  0.1661047939999989  0.3330519800000005  0.4997893270000020   F   F   F
  0.4163783489999986  0.3327575619999976  0.4991557000000029   F   F   F
  0.6669481400000024  0.3330518900000001  0.5000000000000000   F   F   F
  0.9166414740000022  0.3332837519999998  0.5001091959999968   F   F   F
  0.1664751770000024  0.5833248499999968  0.4999960959999967   F   F   F
  0.4163782890000007  0.5836217399999981  0.4991832669999994   F   F   F
  0.6672424670000012  0.5836216209999989  0.4991581439999990   F   F   F
  0.9168491360000033  0.5833245520000006  0.4999786019999988   F   F   F
  0.1666664930000010  0.8333333129999971  0.5000005959999996   F   F   F
  0.4166749720000027  0.8335247640000034  0.4999896590000006   F   F   F
  0.6669481400000024  0.8338955039999973  0.4997857210000021   F   F   F
  0.9168490770000020  0.8335247640000034  0.5000000000000000   F   F   F
  0.0831501039999978  0.1664748939999967  0.5000000000000000   F   F   F
  0.3330530819999993  0.1661045250000015  0.4997752610000035   F   F   F
  0.5833242539999972  0.1664754450000032  0.5000382659999971   F   F   F
  0.8333331939999979  0.1666666269999979  0.5000310539999973   F   F   F
  0.0831506480000002  0.4166755079999973  0.5000205039999983   F   F   F
  0.3327568170000035  0.4163775150000006  0.4991699759999975   F   F   F
  0.5836201310000035  0.4163800179999981  0.4992154540000016   F   F   F
  0.8335245250000014  0.4166758060000006  0.5000638960000003   F   F   F
  0.0833588019999993  0.6667169930000014  0.5000000000000000   F   F   F
  0.3330514129999997  0.6669485569999978  0.4997925159999994   F   F   F
  0.5836223359999977  0.6672428850000003  0.4991734620000017   F   F   F
  0.8338956830000015  0.6669469480000032  0.4997736810000006   F   F   F
  0.0833583619999985  0.9166415930000014  0.5000798109999991   F   F   F
  0.3332830069999986  0.9166411160000010  0.5000000000000000   F   F   F
  0.5833247300000011  0.9168496129999966  0.4999906420000002   F   F   F
  0.8335251210000010  0.9168499109999999  0.5000000000000000   F   F   F
  0.5000000000000000  0.4999999699999975  0.7611616829050679   F   F   T
  0.5000000000000000  0.4999999699999975  0.6490664770904654   F   F   T
  0.4226430508606326  0.5000335209697182  0.6184510397404638   T   T   T
  0.5771964235799777  0.4999217518086807  0.6185037413988940   T   T   T
 
  0.00000000E+00  0.00000000E+00  0.00000000E+00
  0.00000000E+00  0.00000000E+00  0.00000000E+00
  0.00000000E+00  0.00000000E+00  0.00000000E+00
  0.00000000E+00  0.00000000E+00  0.00000000E+00
  0.00000000E+00  0.00000000E+00  0.00000000E+00
  0.00000000E+00  0.00000000E+00  0.00000000E+00
  0.00000000E+00  0.00000000E+00  0.00000000E+00
  0.00000000E+00  0.00000000E+00  0.00000000E+00
  0.00000000E+00  0.00000000E+00  0.00000000E+00
  0.00000000E+00  0.00000000E+00  0.00000000E+00
  0.00000000E+00  0.00000000E+00  0.00000000E+00
  0.00000000E+00  0.00000000E+00  0.00000000E+00
  0.00000000E+00  0.00000000E+00  0.00000000E+00
  0.00000000E+00  0.00000000E+00  0.00000000E+00
  0.00000000E+00  0.00000000E+00  0.00000000E+00
  0.00000000E+00  0.00000000E+00  0.00000000E+00
  0.00000000E+00  0.00000000E+00  0.00000000E+00
  0.00000000E+00  0.00000000E+00  0.00000000E+00
  0.00000000E+00  0.00000000E+00  0.00000000E+00
  0.00000000E+00  0.00000000E+00  0.00000000E+00
  0.00000000E+00  0.00000000E+00  0.00000000E+00
  0.00000000E+00  0.00000000E+00  0.00000000E+00
  0.00000000E+00  0.00000000E+00  0.00000000E+00
  0.00000000E+00  0.00000000E+00  0.00000000E+00
  0.00000000E+00  0.00000000E+00  0.00000000E+00
  0.00000000E+00  0.00000000E+00  0.00000000E+00
  0.00000000E+00  0.00000000E+00  0.00000000E+00
  0.00000000E+00  0.00000000E+00  0.00000000E+00
  0.00000000E+00  0.00000000E+00  0.00000000E+00
  0.00000000E+00  0.00000000E+00  0.00000000E+00
  0.00000000E+00  0.00000000E+00  0.00000000E+00
  0.00000000E+00  0.00000000E+00  0.00000000E+00
  0.00000000E+00  0.00000000E+00  0.00000000E+00
  0.00000000E+00  0.00000000E+00  0.00000000E+00
  0.00000000E+00  0.00000000E+00  0.00000000E+00
  0.00000000E+00  0.00000000E+00  0.00000000E+00
