k-mesh for unfolding the band structure
      50
Reciprocal lattice
 0.00000000000000  0.00000000000000  0.00000000000000  1
 0.08333333333332  0.00000000000000  0.00000000000000  1
 0.16666666666668  0.00000000000000  0.00000000000000  1
 0.25000000000000  0.00000000000000  0.00000000000000  1
 0.33333333333332  0.00000000000000  0.00000000000000  1
 0.41666666666668  0.00000000000000  0.00000000000000  1
 0.50000000000000  0.00000000000000  0.00000000000000  1
-0.41666666666668  0.00000000000000  0.00000000000000  1
-0.33333333333332  0.00000000000000  0.00000000000000  1
-0.25000000000000  0.00000000000000  0.00000000000000  1
-0.16666666666668  0.00000000000000  0.00000000000000  1
-0.08333333333332  0.00000000000000  0.00000000000000  1
-0.02777777777776  0.05555555555556  0.00000000000000  1
-0.05555555555556  0.11111111111112  0.00000000000000  1
-0.08333333333332  0.16666666666668  0.00000000000000  1
-0.11111111111112  0.22222222222224  0.00000000000000  1
-0.13888888888888  0.27777777777776  0.00000000000000  1
-0.16666666666668  0.33333333333332  0.00000000000000  1
-0.19444444444444  0.38888888888888  0.00000000000000  1
-0.22222222222224  0.44444444444444  0.00000000000000  1
-0.25000000000000  0.50000000000000  0.00000000000000  1
-0.27777777777776 -0.44444444444444  0.00000000000000  1
-0.30555555555556 -0.38888888888888  0.00000000000000  1
-0.33333333333332 -0.33333333333332  0.00000000000000  1
-0.36111111111112 -0.27777777777776  0.00000000000000  1
-0.38888888888888 -0.22222222222224  0.00000000000000  1
-0.41666666666668 -0.16666666666668  0.00000000000000  1
-0.44444444444444 -0.11111111111112  0.00000000000000  1
-0.47222222222224 -0.05555555555556  0.00000000000000  1
 0.47222222222224  0.05555555555556  0.00000000000000  1
 0.44444444444444  0.11111111111112  0.00000000000000  1
 0.41666666666668  0.16666666666668  0.00000000000000  1
 0.38888888888888  0.22222222222224  0.00000000000000  1
 0.36111111111112  0.27777777777776  0.00000000000000  1
 0.33333333333332  0.33333333333332  0.00000000000000  1
 0.27777777777776  0.27777777777776  0.00000000000000  1
 0.22222222222224  0.22222222222224  0.00000000000000  1
 0.16666666666668  0.16666666666668  0.00000000000000  1
 0.11111111111112  0.11111111111112  0.00000000000000  1
 0.05555555555556  0.05555555555556  0.00000000000000  1
-0.05555555555556 -0.05555555555556  0.00000000000000  1
-0.11111111111112 -0.11111111111112  0.00000000000000  1
-0.16666666666668 -0.16666666666668  0.00000000000000  1
-0.22222222222224 -0.22222222222224  0.00000000000000  1
-0.27777777777776 -0.27777777777776  0.00000000000000  1
-0.38888888888888 -0.38888888888888  0.00000000000000  1
-0.44444444444444 -0.44444444444444  0.00000000000000  1
 0.50000000000000  0.50000000000000  0.00000000000000  1
 0.44444444444444  0.44444444444444  0.00000000000000  1
 0.38888888888888  0.38888888888888  0.00000000000000  1
