graphene+K                              
   1.00000000000000     
     9.8742347985747667    0.0000000000000000    0.0000000000000000
    -4.9371173992873834    8.5513381773858281    0.0000000000000000
     0.0000000000000000    0.0000000000000000   15.0000000000000000
   C    Na
    32     1
Selective dynamics
Direct
  0.1665051228028817  0.0832463179218247  0.5000622380571266   T   T   T
  0.4165195515329397  0.0830390780658809  0.5000367183012712   T   T   T
  0.6667412201189487  0.0832463179218247  0.5000622380571266   T   T   T
  0.9166666750000019  0.0833333249999981  0.4999761030629583   T   T   T
  0.1665051228028817  0.3332587798810513  0.5000622380571266   T   T   T
  0.4161442681125675  0.3330721215562775  0.4998451060804900   T   T   T
  0.6669278784437227  0.3330721215562775  0.4998451060804900   T   T   T
  0.9167536820781753  0.3332587798810513  0.5000622380571266   T   T   T
  0.1666630347103913  0.5833260444207700  0.4999972091419815   T   T   T
  0.4165195515329397  0.5834804484670603  0.5000367183012712   T   T   T
  0.6669278784437227  0.5838557318874323  0.4998451060804900   T   T   T
  0.9169609219341190  0.5834804484670603  0.5000367183012712   T   T   T
  0.1666630347103913  0.8333369652896087  0.4999972091419815   T   T   T
  0.4166739555792301  0.8333369652896087  0.4999972091419815   T   T   T
  0.6667412201189487  0.8334948771971183  0.5000622380571266   T   T   T
  0.9167536820781753  0.8334948771971183  0.5000622380571266   T   T   T
  0.0832464479065820  0.1666232364532938  0.4999895975133759   T   T   T
  0.3330212780700678  0.1662830958339065  0.5001255466841812   T   T   T
  0.5832617927638332  0.1662830958339065  0.5001255466841812   T   T   T
  0.8333767635467062  0.1666232364532938  0.4999895975133759   T   T   T
  0.0833682052062528  0.4167364354125040  0.5000082072906878   T   T   T
  0.3330212780700678  0.4167382072361668  0.5001255466841812   T   T   T
  0.5833333249999981  0.4166666750000019  0.4987172859491096   T   T   T
  0.8337169041660935  0.4167382072361668  0.5001255466841812   T   T   T
  0.0834417816701542  0.6667209033350799  0.5000087167747483   T   T   T
  0.3332790966649201  0.6667209033350799  0.5000087167747483   T   T   T
  0.5832617927638332  0.6669787219299322  0.5001255466841812   T   T   T
  0.8337169041660935  0.6669787219299322  0.5001255466841812   T   T   T
  0.0833682052062528  0.9166317947937472  0.5000082072906878   T   T   T
  0.3332790966649201  0.9165582183298457  0.5000087167747483   T   T   T
  0.5832635645874960  0.9166317947937472  0.5000082072906878   T   T   T
  0.8333767635467062  0.9167535520934180  0.4999895975133759   T   T   T
  0.5833333249999981  0.4166666750000019  0.6665232372324262   F   F   T
 
  0.00000000E+00  0.00000000E+00  0.00000000E+00
  0.00000000E+00  0.00000000E+00  0.00000000E+00
  0.00000000E+00  0.00000000E+00  0.00000000E+00
  0.00000000E+00  0.00000000E+00  0.00000000E+00
  0.00000000E+00  0.00000000E+00  0.00000000E+00
  0.00000000E+00  0.00000000E+00  0.00000000E+00
  0.00000000E+00  0.00000000E+00  0.00000000E+00
  0.00000000E+00  0.00000000E+00  0.00000000E+00
  0.00000000E+00  0.00000000E+00  0.00000000E+00
  0.00000000E+00  0.00000000E+00  0.00000000E+00
  0.00000000E+00  0.00000000E+00  0.00000000E+00
  0.00000000E+00  0.00000000E+00  0.00000000E+00
  0.00000000E+00  0.00000000E+00  0.00000000E+00
  0.00000000E+00  0.00000000E+00  0.00000000E+00
  0.00000000E+00  0.00000000E+00  0.00000000E+00
  0.00000000E+00  0.00000000E+00  0.00000000E+00
  0.00000000E+00  0.00000000E+00  0.00000000E+00
  0.00000000E+00  0.00000000E+00  0.00000000E+00
  0.00000000E+00  0.00000000E+00  0.00000000E+00
  0.00000000E+00  0.00000000E+00  0.00000000E+00
  0.00000000E+00  0.00000000E+00  0.00000000E+00
  0.00000000E+00  0.00000000E+00  0.00000000E+00
  0.00000000E+00  0.00000000E+00  0.00000000E+00
  0.00000000E+00  0.00000000E+00  0.00000000E+00
  0.00000000E+00  0.00000000E+00  0.00000000E+00
  0.00000000E+00  0.00000000E+00  0.00000000E+00
  0.00000000E+00  0.00000000E+00  0.00000000E+00
  0.00000000E+00  0.00000000E+00  0.00000000E+00
  0.00000000E+00  0.00000000E+00  0.00000000E+00
  0.00000000E+00  0.00000000E+00  0.00000000E+00
  0.00000000E+00  0.00000000E+00  0.00000000E+00
  0.00000000E+00  0.00000000E+00  0.00000000E+00
  0.00000000E+00  0.00000000E+00  0.00000000E+00
