graphene+K                              
   1.00000000000000     
     9.8742347985747667    0.0000000000000000    0.0000000000000000
    -4.9371173992873834    8.5513381773858281    0.0000000000000000
     0.0000000000000000    0.0000000000000000   15.0000000000000000
   C    Na
    32     1
Selective dynamics
Direct
  0.1663693651479947  0.0831431077920852  0.5000246599954463   T   T   T
  0.4164923278769689  0.0829846307539322  0.5000044993472063   T   T   T
  0.6667737676440960  0.0831431077920852  0.5000246599954463   T   T   T
  0.9166666750000019  0.0833333249999981  0.5000034640965990   T   T   T
  0.1663693651479947  0.3332262323559039  0.5000246599954463   T   T   T
  0.4161319711372107  0.3330659730686026  0.5000171451866404   T   T   T
  0.6669340269313974  0.3330659730686026  0.5000171451866404   T   T   T
  0.9168568922079148  0.3332262323559039  0.5000246599954463   T   T   T
  0.1666514186964445  0.5833028123928833  0.4999972712952926   T   T   T
  0.4164923278769689  0.5835076721230312  0.5000044993472063   T   T   T
  0.6669340269313974  0.5838680288627892  0.5000171451866404   T   T   T
  0.9170153692460677  0.5835076721230312  0.5000044993472063   T   T   T
  0.1666514186964445  0.8333485813035556  0.4999972712952926   T   T   T
  0.4166971876071167  0.8333485813035556  0.4999972712952926   T   T   T
  0.6667737676440960  0.8336306348520053  0.5000246599954463   T   T   T
  0.9168568922079148  0.8336306348520053  0.5000246599954463   T   T   T
  0.0832395352982171  0.1666197801491114  0.4999845693663039   T   T   T
  0.3329426416945397  0.1661900956511902  0.5001038398986911   T   T   T
  0.5832474289566448  0.1661900956511902  0.5001038398986911   T   T   T
  0.8333802198508886  0.1666197801491114  0.4999845693663039   T   T   T
  0.0833796961939491  0.4167594173879038  0.4999912978716225   T   T   T
  0.3329426416945397  0.4167525710433552  0.5001038398986911   T   T   T
  0.5833333249999981  0.4166666750000019  0.4989635694926472   T   T   T
  0.8338099043488099  0.4167525710433552  0.5001038398986911   T   T   T
  0.0835452532748238  0.6667726391374146  0.5000097647809780   T   T   T
  0.3332273608625853  0.6667726391374146  0.5000097647809780   T   T   T
  0.5832474289566448  0.6670573583054603  0.5001038398986911   T   T   T
  0.8338099043488099  0.6670573583054603  0.5001038398986911   T   T   T
  0.0833796961939491  0.9166203038060511  0.4999912978716225   T   T   T
  0.3332273608625853  0.9164547467251761  0.5000097647809780   T   T   T
  0.5832405826120961  0.9166203038060511  0.4999912978716225   T   T   T
  0.8333802198508886  0.9167604647017830  0.4999845693663039   T   T   T
  0.5833333249999981  0.4166666750000019  0.6662483235017952   F   F   T
 
  0.00000000E+00  0.00000000E+00  0.00000000E+00
  0.00000000E+00  0.00000000E+00  0.00000000E+00
  0.00000000E+00  0.00000000E+00  0.00000000E+00
  0.00000000E+00  0.00000000E+00  0.00000000E+00
  0.00000000E+00  0.00000000E+00  0.00000000E+00
  0.00000000E+00  0.00000000E+00  0.00000000E+00
  0.00000000E+00  0.00000000E+00  0.00000000E+00
  0.00000000E+00  0.00000000E+00  0.00000000E+00
  0.00000000E+00  0.00000000E+00  0.00000000E+00
  0.00000000E+00  0.00000000E+00  0.00000000E+00
  0.00000000E+00  0.00000000E+00  0.00000000E+00
  0.00000000E+00  0.00000000E+00  0.00000000E+00
  0.00000000E+00  0.00000000E+00  0.00000000E+00
  0.00000000E+00  0.00000000E+00  0.00000000E+00
  0.00000000E+00  0.00000000E+00  0.00000000E+00
  0.00000000E+00  0.00000000E+00  0.00000000E+00
  0.00000000E+00  0.00000000E+00  0.00000000E+00
  0.00000000E+00  0.00000000E+00  0.00000000E+00
  0.00000000E+00  0.00000000E+00  0.00000000E+00
  0.00000000E+00  0.00000000E+00  0.00000000E+00
  0.00000000E+00  0.00000000E+00  0.00000000E+00
  0.00000000E+00  0.00000000E+00  0.00000000E+00
  0.00000000E+00  0.00000000E+00  0.00000000E+00
  0.00000000E+00  0.00000000E+00  0.00000000E+00
  0.00000000E+00  0.00000000E+00  0.00000000E+00
  0.00000000E+00  0.00000000E+00  0.00000000E+00
  0.00000000E+00  0.00000000E+00  0.00000000E+00
  0.00000000E+00  0.00000000E+00  0.00000000E+00
  0.00000000E+00  0.00000000E+00  0.00000000E+00
  0.00000000E+00  0.00000000E+00  0.00000000E+00
  0.00000000E+00  0.00000000E+00  0.00000000E+00
  0.00000000E+00  0.00000000E+00  0.00000000E+00
  0.00000000E+00  0.00000000E+00  0.00000000E+00
