graphene+K                              
   1.00000000000000     
     9.8742351532000008    0.0000000000000000    0.0000000000000000
    -4.9371175766000004    8.5513384856000005    0.0000000000000000
     0.0000000000000000    0.0000000000000000   20.0000000000000000
   C    K 
    32     1
Selective dynamics
Direct
  0.1665016236315893  0.0831838121623178  0.5000000000000000   T   T   F
  0.4166806111967247  0.0831836363683038  0.4999130505837499   T   T   T
  0.6667410587574807  0.0833708768348131  0.5000000000000000   T   T   F
  0.9166274358162951  0.0833736277627466  0.5001033088888747   T   T   T
  0.1662414928530822  0.3331217622109790  0.4999258441546885   T   T   T
  0.4164471204671827  0.3328997791060644  0.4990982147556053   T   T   T
  0.6668743537366595  0.3331239139367383  0.5000000000000000   T   T   F
  0.9166285990668186  0.3332588149763964  0.5002601973030991   T   T   T
  0.1665007214752308  0.5833206503430048  0.5000730839738168   T   T   T
  0.4164479478960814  0.5835515059679253  0.4992283370929442   T   T   T
  0.6671012869383048  0.5835526042280392  0.4991193198853736   T   T   T
  0.9168162934889494  0.5833203044697655  0.4999706541850131   T   T   T
  0.1666651300094415  0.8333346224376612  0.4999826146206843   T   T   T
  0.4166806425380472  0.8334991953597992  0.4999947106159013   T   T   T
  0.6668788254848224  0.8337594282729981  0.4998686540806219   T   T   T
  0.9168170454101912  0.8334987945685555  0.5000000000000000   T   T   F
  0.0831818849167973  0.1665029836327889  0.5000000000000000   T   T   F
  0.3331202362011396  0.1662449280774752  0.4998041535248703   T   T   T
  0.5833167902087055  0.1665003825905416  0.4999902067053839   T   T   T
  0.8333337123011546  0.1666668769959117  0.5001530188580929   T   T   T
  0.0831810049603945  0.4166814533408072  0.5001249855891174   T   T   T
  0.3328976398779560  0.4164499004420392  0.4991456685705131   T   T   T
  0.5835491062273732  0.4164502929184479  0.4991679473181136   T   T   T
  0.8334981278987641  0.4166835766465695  0.5001448254306453   T   T   T
  0.0833705859863159  0.6667433399428901  0.5000000000000000   T   T   F
  0.3331203764251782  0.6668806191610344  0.4999994523280833   T   T   T
  0.5835505074085248  0.6671021921203817  0.4991547097971107   T   T   T
  0.8337559985396084  0.6668804422148540  0.4998089276339996   T   T   T
  0.0833717659638680  0.9166287476081507  0.5000432254733980   T   T   T
  0.3332570467519105  0.9166297353787343  0.5000000000000000   T   T   F
  0.5833189335079325  0.9168185361665806  0.4999296154035235   T   T   T
  0.8334980224212174  0.9168187693629406  0.5000000000000000   T   T   F
  0.5000000000000000  0.5000000000000000  0.6323508000491103   F   F   T
 
  0.00000000E+00  0.00000000E+00  0.00000000E+00
  0.00000000E+00  0.00000000E+00  0.00000000E+00
  0.00000000E+00  0.00000000E+00  0.00000000E+00
  0.00000000E+00  0.00000000E+00  0.00000000E+00
  0.00000000E+00  0.00000000E+00  0.00000000E+00
  0.00000000E+00  0.00000000E+00  0.00000000E+00
  0.00000000E+00  0.00000000E+00  0.00000000E+00
  0.00000000E+00  0.00000000E+00  0.00000000E+00
  0.00000000E+00  0.00000000E+00  0.00000000E+00
  0.00000000E+00  0.00000000E+00  0.00000000E+00
  0.00000000E+00  0.00000000E+00  0.00000000E+00
  0.00000000E+00  0.00000000E+00  0.00000000E+00
  0.00000000E+00  0.00000000E+00  0.00000000E+00
  0.00000000E+00  0.00000000E+00  0.00000000E+00
  0.00000000E+00  0.00000000E+00  0.00000000E+00
  0.00000000E+00  0.00000000E+00  0.00000000E+00
  0.00000000E+00  0.00000000E+00  0.00000000E+00
  0.00000000E+00  0.00000000E+00  0.00000000E+00
  0.00000000E+00  0.00000000E+00  0.00000000E+00
  0.00000000E+00  0.00000000E+00  0.00000000E+00
  0.00000000E+00  0.00000000E+00  0.00000000E+00
  0.00000000E+00  0.00000000E+00  0.00000000E+00
  0.00000000E+00  0.00000000E+00  0.00000000E+00
  0.00000000E+00  0.00000000E+00  0.00000000E+00
  0.00000000E+00  0.00000000E+00  0.00000000E+00
  0.00000000E+00  0.00000000E+00  0.00000000E+00
  0.00000000E+00  0.00000000E+00  0.00000000E+00
  0.00000000E+00  0.00000000E+00  0.00000000E+00
  0.00000000E+00  0.00000000E+00  0.00000000E+00
  0.00000000E+00  0.00000000E+00  0.00000000E+00
  0.00000000E+00  0.00000000E+00  0.00000000E+00
  0.00000000E+00  0.00000000E+00  0.00000000E+00
  0.00000000E+00  0.00000000E+00  0.00000000E+00
