Automatic mesh
0
Monkhorst Pack
23  23  1
0  0  0
