graphene+K                              
   1.00000000000000     
     9.8742347985747667    0.0000000000000000    0.0000000000000000
    -4.9371173992873834    8.5513381773858281    0.0000000000000000
     0.0000000000000000    0.0000000000000000   15.0000000000000000
   C    Na
    32     1
Selective dynamics
Direct
  0.1664298676289007  0.0830376176872804  0.5000501988271066   T   T   T
  0.4167614739455116  0.0831367151290209  0.5000524983169179   T   T   T
  0.6667026302145774  0.0832973697854225  0.4999864700523358   T   T   T
  0.9164884766323205  0.0832543011272152  0.5001840933490155   T   T   T
  0.1662548025234947  0.3332282498792858  0.4995372685364169   T   T   T
  0.4168106381331399  0.3331893618668601  0.4983014575834894   T   T   T
  0.6668632848709791  0.3332385260544884  0.5000524983169179   T   T   T
  0.9165465755291268  0.3332425456566857  0.5002254111144109   T   T   T
  0.1665673522669401  0.5834326477330600  0.5000254831909802   T   T   T
  0.4167717501207142  0.5837451974765052  0.4995372685364169   T   T   T
  0.6669623823127195  0.5835701323710993  0.5000501988271066   T   T   T
  0.9167320146887564  0.5833638478362061  0.5000550198868062   T   T   T
  0.1666361521637940  0.8332679853112436  0.5000550198868062   T   T   T
  0.4167574543433143  0.8334534244708732  0.5002254111144109   T   T   T
  0.6667456988727849  0.8335115233676795  0.5001840933490155   T   T   T
  0.9166537700277445  0.8333462299722555  0.5001689098510692   T   T   T
  0.0830376176872804  0.1664298676289007  0.5000501988271066   T   T   T
  0.3332282498792858  0.1662548025234947  0.4995372685364169   T   T   T
  0.5834326477330600  0.1665673522669401  0.5000254831909802   T   T   T
  0.8332679853112436  0.1666361521637940  0.5000550198868062   T   T   T
  0.0831367151290209  0.4167614739455116  0.5000524983169179   T   T   T
  0.3331893618668601  0.4168106381331399  0.4983014575834894   T   T   T
  0.5837451974765052  0.4167717501207142  0.4995372685364169   T   T   T
  0.8334534244708732  0.4167574543433143  0.5002254111144109   T   T   T
  0.0832973697854225  0.6667026302145774  0.4999864700523358   T   T   T
  0.3332385260544884  0.6668632848709791  0.5000524983169179   T   T   T
  0.5835701323710993  0.6669623823127195  0.5000501988271066   T   T   T
  0.8335115233676795  0.6667456988727849  0.5001840933490155   T   T   T
  0.0832543011272152  0.9164884766323205  0.5001840933490155   T   T   T
  0.3332425456566857  0.9165465755291268  0.5002254111144109   T   T   T
  0.5833638478362061  0.9167320146887564  0.5000550198868062   T   T   T
  0.8333462299722555  0.9166537700277445  0.5001689098510692   T   T   T
  0.3750000000000000  0.3750000000000000  0.6652840651881926   F   F   T
 
  0.00000000E+00  0.00000000E+00  0.00000000E+00
  0.00000000E+00  0.00000000E+00  0.00000000E+00
  0.00000000E+00  0.00000000E+00  0.00000000E+00
  0.00000000E+00  0.00000000E+00  0.00000000E+00
  0.00000000E+00  0.00000000E+00  0.00000000E+00
  0.00000000E+00  0.00000000E+00  0.00000000E+00
  0.00000000E+00  0.00000000E+00  0.00000000E+00
  0.00000000E+00  0.00000000E+00  0.00000000E+00
  0.00000000E+00  0.00000000E+00  0.00000000E+00
  0.00000000E+00  0.00000000E+00  0.00000000E+00
  0.00000000E+00  0.00000000E+00  0.00000000E+00
  0.00000000E+00  0.00000000E+00  0.00000000E+00
  0.00000000E+00  0.00000000E+00  0.00000000E+00
  0.00000000E+00  0.00000000E+00  0.00000000E+00
  0.00000000E+00  0.00000000E+00  0.00000000E+00
  0.00000000E+00  0.00000000E+00  0.00000000E+00
  0.00000000E+00  0.00000000E+00  0.00000000E+00
  0.00000000E+00  0.00000000E+00  0.00000000E+00
  0.00000000E+00  0.00000000E+00  0.00000000E+00
  0.00000000E+00  0.00000000E+00  0.00000000E+00
  0.00000000E+00  0.00000000E+00  0.00000000E+00
  0.00000000E+00  0.00000000E+00  0.00000000E+00
  0.00000000E+00  0.00000000E+00  0.00000000E+00
  0.00000000E+00  0.00000000E+00  0.00000000E+00
  0.00000000E+00  0.00000000E+00  0.00000000E+00
  0.00000000E+00  0.00000000E+00  0.00000000E+00
  0.00000000E+00  0.00000000E+00  0.00000000E+00
  0.00000000E+00  0.00000000E+00  0.00000000E+00
  0.00000000E+00  0.00000000E+00  0.00000000E+00
  0.00000000E+00  0.00000000E+00  0.00000000E+00
  0.00000000E+00  0.00000000E+00  0.00000000E+00
  0.00000000E+00  0.00000000E+00  0.00000000E+00
  0.00000000E+00  0.00000000E+00  0.00000000E+00
