graphene+K                              
   1.00000000000000     
     9.8742347985747667    0.0000000000000000    0.0000000000000000
    -4.9371173992873834    8.5513381773858281    0.0000000000000000
     0.0000000000000000    0.0000000000000000   15.0000000000000000
   C    Na
    32     1
Selective dynamics
Direct
  0.1663430300023210  0.0829030051011067  0.5001329147039079   T   T   T
  0.4167821525062414  0.0830471544767235  0.5001247045880973   T   T   T
  0.6667262257428883  0.0832737742571117  0.4999811373426470   T   T   T
  0.9164093749682258  0.0832205037497735  0.5000506710682822   T   T   T
  0.1661579410322809  0.3332050182418604  0.5000423368621562   T   T   T
  0.4168682208834923  0.3331317791165077  0.4988853811261064   T   T   T
  0.6669528455232766  0.3332178474937586  0.5001247045880973   T   T   T
  0.9165031177094851  0.3331993142012548  0.5000270663923986   T   T   T
  0.1665103802181402  0.5834896197818599  0.4999663664269583   T   T   T
  0.4167949817581396  0.5838420589677191  0.5000423368621562   T   T   T
  0.6670969948988933  0.5836569699976789  0.5001329147039079   T   T   T
  0.9167848081767965  0.5833817077162592  0.4999968165398989   T   T   T
  0.1666182922837409  0.8332151918232035  0.4999968165398989   T   T   T
  0.4168006857987452  0.8334968822905149  0.5000270663923986   T   T   T
  0.6667794962502264  0.8335906250317742  0.5000506710682822   T   T   T
  0.9166358634655835  0.8333641365344165  0.4999978788294847   T   T   T
  0.0829030051011067  0.1663430300023210  0.5001329147039079   T   T   T
  0.3332050182418604  0.1661579410322809  0.5000423368621562   T   T   T
  0.5834896197818599  0.1665103802181402  0.4999663664269583   T   T   T
  0.8332151918232035  0.1666182922837409  0.4999968165398989   T   T   T
  0.0830471544767235  0.4167821525062414  0.5001247045880973   T   T   T
  0.3331317791165077  0.4168682208834923  0.4988853811261064   T   T   T
  0.5838420589677191  0.4167949817581396  0.5000423368621562   T   T   T
  0.8334968822905149  0.4168006857987452  0.5000270663923986   T   T   T
  0.0832737742571117  0.6667262257428883  0.4999811373426470   T   T   T
  0.3332178474937586  0.6669528455232766  0.5001247045880973   T   T   T
  0.5836569699976789  0.6670969948988933  0.5001329147039079   T   T   T
  0.8335906250317742  0.6667794962502264  0.5000506710682822   T   T   T
  0.0832205037497735  0.9164093749682258  0.5000506710682822   T   T   T
  0.3331993142012548  0.9165031177094851  0.5000270663923986   T   T   T
  0.5833817077162592  0.9167848081767965  0.4999968165398989   T   T   T
  0.8333641365344165  0.9166358634655835  0.4999978788294847   T   T   T
  0.3750000000000000  0.3750000000000000  0.6635070985973082   F   F   T
 
  0.00000000E+00  0.00000000E+00  0.00000000E+00
  0.00000000E+00  0.00000000E+00  0.00000000E+00
  0.00000000E+00  0.00000000E+00  0.00000000E+00
  0.00000000E+00  0.00000000E+00  0.00000000E+00
  0.00000000E+00  0.00000000E+00  0.00000000E+00
  0.00000000E+00  0.00000000E+00  0.00000000E+00
  0.00000000E+00  0.00000000E+00  0.00000000E+00
  0.00000000E+00  0.00000000E+00  0.00000000E+00
  0.00000000E+00  0.00000000E+00  0.00000000E+00
  0.00000000E+00  0.00000000E+00  0.00000000E+00
  0.00000000E+00  0.00000000E+00  0.00000000E+00
  0.00000000E+00  0.00000000E+00  0.00000000E+00
  0.00000000E+00  0.00000000E+00  0.00000000E+00
  0.00000000E+00  0.00000000E+00  0.00000000E+00
  0.00000000E+00  0.00000000E+00  0.00000000E+00
  0.00000000E+00  0.00000000E+00  0.00000000E+00
  0.00000000E+00  0.00000000E+00  0.00000000E+00
  0.00000000E+00  0.00000000E+00  0.00000000E+00
  0.00000000E+00  0.00000000E+00  0.00000000E+00
  0.00000000E+00  0.00000000E+00  0.00000000E+00
  0.00000000E+00  0.00000000E+00  0.00000000E+00
  0.00000000E+00  0.00000000E+00  0.00000000E+00
  0.00000000E+00  0.00000000E+00  0.00000000E+00
  0.00000000E+00  0.00000000E+00  0.00000000E+00
  0.00000000E+00  0.00000000E+00  0.00000000E+00
  0.00000000E+00  0.00000000E+00  0.00000000E+00
  0.00000000E+00  0.00000000E+00  0.00000000E+00
  0.00000000E+00  0.00000000E+00  0.00000000E+00
  0.00000000E+00  0.00000000E+00  0.00000000E+00
  0.00000000E+00  0.00000000E+00  0.00000000E+00
  0.00000000E+00  0.00000000E+00  0.00000000E+00
  0.00000000E+00  0.00000000E+00  0.00000000E+00
  0.00000000E+00  0.00000000E+00  0.00000000E+00
