graphene+Na                             
   1.00000000000000     
     9.8742351532000008    0.0000000000000000    0.0000000000000000
    -4.9371175766000004    8.5513384856000005    0.0000000000000000
     0.0000000000000000    0.0000000000000000   20.0000000000000000
   Na   O    H 
     1     1     2
Selective dynamics
Direct
  0.5000000000000000  0.4999999699999975  0.7611616829050689   F   F   T
  0.5000000000000000  0.4999999699999975  0.6490664770904644   F   F   T
  0.4226430508606356  0.5000335209697155  0.6184510397404637   T   T   T
  0.5771964235799771  0.4999217518086780  0.6185037413988965   T   T   T
 
  0.00000000E+00  0.00000000E+00  0.00000000E+00
  0.00000000E+00  0.00000000E+00  0.00000000E+00
  0.00000000E+00  0.00000000E+00  0.00000000E+00
  0.00000000E+00  0.00000000E+00  0.00000000E+00
