graphene+Na                             
   1.00000000000000     
     9.8742351532000008    0.0000000000000000    0.0000000000000000
    -4.9371175766000004    8.5513384856000005    0.0000000000000000
     0.0000000000000000    0.0000000000000000   20.0000000000000000
   C    Na
    32     1
Selective dynamics
Direct
  0.1664751848578802  0.0831508671793841  0.5000000000000000   T   T   F
  0.4166753735440594  0.0831507575747494  0.4999743690816559   T   T   T
  0.6667164971273890  0.0833587049185311  0.5000000000000000   T   T   F
  0.9166418255107800  0.0833582569642885  0.5000861592493564   T   T   T
  0.1661047905836597  0.3330519701390173  0.4997893414251990   T   T   T
  0.4163783472444322  0.3327575545806098  0.4991557146327779   T   T   T
  0.6669481550216219  0.3330518862597813  0.5000000000000000   T   T   F
  0.9166414444344256  0.3332837454776225  0.5001091731069066   T   T   T
  0.1664751743590855  0.5833248591971412  0.4999960857596690   T   T   T
  0.4163782882469107  0.5836217190047962  0.4991832976741009   T   T   T
  0.6672424816750535  0.5836216449173789  0.4991581565367156   T   T   T
  0.9168491121092687  0.5833245666357457  0.4999786149630623   T   T   T
  0.1666664893836654  0.8333333318085964  0.5000005732695171   T   T   T
  0.4166749617881748  0.8335247716823561  0.4999896602695344   T   T   T
  0.6669481371805902  0.8338954797579348  0.4997856854877725   T   T   T
  0.9168490647983205  0.8335247664064268  0.5000000000000000   T   T   F
  0.0831501016488403  0.1664748960458624  0.5000000000000000   T   T   F
  0.3330530735035567  0.1661045245226660  0.4997752530820350   T   T   T
  0.5833242613598131  0.1664754514075497  0.5000382461721599   T   T   T
  0.8333331889215357  0.1666666256256590  0.5000310352002656   T   T   T
  0.0831506480466473  0.4166754991276775  0.5000205163317020   T   T   T
  0.3327568071234452  0.4163775281253379  0.4991699804639182   T   T   T
  0.5836201319355753  0.4163800051328224  0.4992154822330050   T   T   T
  0.8335245020203103  0.4166757930294196  0.5000638809683481   T   T   T
  0.0833588174884667  0.6667169975341382  0.5000000000000000   T   T   F
  0.3330514031790202  0.6669485408357759  0.4997925071481930   T   T   T
  0.5836223436900880  0.6672428598255137  0.4991734738942810   T   T   T
  0.8338956923245462  0.6669469421858381  0.4997736779769752   T   T   T
  0.0833583633223611  0.9166415958420160  0.5000797819124400   T   T   T
  0.3332829955726666  0.9166411355162296  0.5000000000000000   T   T   F
  0.5833247510728937  0.9168496385960339  0.4999906847369431   T   T   T
  0.8335251298637942  0.9168499069954805  0.5000000000000000   T   T   F
  0.5000000000000000  0.5000000000000000  0.6149349616650213   F   F   T
 
  0.00000000E+00  0.00000000E+00  0.00000000E+00
  0.00000000E+00  0.00000000E+00  0.00000000E+00
  0.00000000E+00  0.00000000E+00  0.00000000E+00
  0.00000000E+00  0.00000000E+00  0.00000000E+00
  0.00000000E+00  0.00000000E+00  0.00000000E+00
  0.00000000E+00  0.00000000E+00  0.00000000E+00
  0.00000000E+00  0.00000000E+00  0.00000000E+00
  0.00000000E+00  0.00000000E+00  0.00000000E+00
  0.00000000E+00  0.00000000E+00  0.00000000E+00
  0.00000000E+00  0.00000000E+00  0.00000000E+00
  0.00000000E+00  0.00000000E+00  0.00000000E+00
  0.00000000E+00  0.00000000E+00  0.00000000E+00
  0.00000000E+00  0.00000000E+00  0.00000000E+00
  0.00000000E+00  0.00000000E+00  0.00000000E+00
  0.00000000E+00  0.00000000E+00  0.00000000E+00
  0.00000000E+00  0.00000000E+00  0.00000000E+00
  0.00000000E+00  0.00000000E+00  0.00000000E+00
  0.00000000E+00  0.00000000E+00  0.00000000E+00
  0.00000000E+00  0.00000000E+00  0.00000000E+00
  0.00000000E+00  0.00000000E+00  0.00000000E+00
  0.00000000E+00  0.00000000E+00  0.00000000E+00
  0.00000000E+00  0.00000000E+00  0.00000000E+00
  0.00000000E+00  0.00000000E+00  0.00000000E+00
  0.00000000E+00  0.00000000E+00  0.00000000E+00
  0.00000000E+00  0.00000000E+00  0.00000000E+00
  0.00000000E+00  0.00000000E+00  0.00000000E+00
  0.00000000E+00  0.00000000E+00  0.00000000E+00
  0.00000000E+00  0.00000000E+00  0.00000000E+00
  0.00000000E+00  0.00000000E+00  0.00000000E+00
  0.00000000E+00  0.00000000E+00  0.00000000E+00
  0.00000000E+00  0.00000000E+00  0.00000000E+00
  0.00000000E+00  0.00000000E+00  0.00000000E+00
  0.00000000E+00  0.00000000E+00  0.00000000E+00
