graphene+Na                             
   1.00000000000000     
     9.8742351532000008    0.0000000000000000    0.0000000000000000
    -4.9371175766000004    8.5513384856000005    0.0000000000000000
     0.0000000000000000    0.0000000000000000   20.0000000000000000
   C    Na
    32     1
Selective dynamics
Direct
  0.1664751848578778  0.0831508671793853  0.5000000000000000   T   T   F
  0.4166753735440617  0.0831507575747500  0.4999743690816534   T   T   T
  0.6667164971273905  0.0833587049185292  0.5000000000000000   T   T   F
  0.9166418255107810  0.0833582569642865  0.5000861592493564   T   T   T
  0.1661047905836598  0.3330519701390177  0.4997893414251955   T   T   T
  0.4163783472444306  0.3327575545806063  0.4991557146327751   T   T   T
  0.6669481550216195  0.3330518862597836  0.5000000000000000   T   T   F
  0.9166414444344226  0.3332837454776217  0.5001091731069077   T   T   T
  0.1664751743590841  0.5833248591971437  0.4999960857596717   T   T   T
  0.4163782882469121  0.5836217190047932  0.4991832976741015   T   T   T
  0.6672424816750564  0.5836216449173794  0.4991581565367135   T   T   T
  0.9168491121092651  0.5833245666357429  0.4999786149630638   T   T   T
  0.1666664893836669  0.8333333318085958  0.5000005732695175   T   T   T
  0.4166749617881781  0.8335247716823535  0.4999896602695340   T   T   T
  0.6669481371805894  0.8338954797579337  0.4997856854877700   T   T   T
  0.9168490647983233  0.8335247664064254  0.5000000000000000   T   T   F
  0.0831501016488392  0.1664748960458641  0.5000000000000000   T   T   F
  0.3330530735035547  0.1661045245226655  0.4997752530820335   T   T   T
  0.5833242613598129  0.1664754514075494  0.5000382461721574   T   T   T
  0.8333331889215378  0.1666666256256594  0.5000310352002647   T   T   T
  0.0831506480466458  0.4166754991276798  0.5000205163317046   T   T   T
  0.3327568071234446  0.4163775281253399  0.4991699804639189   T   T   T
  0.5836201319355752  0.4163800051328193  0.4992154822330077   T   T   T
  0.8335245020203079  0.4166757930294203  0.5000638809683496   T   T   T
  0.0833588174884634  0.6667169975341355  0.5000000000000000   T   T   F
  0.3330514031790219  0.6669485408357791  0.4997925071481908   T   T   T
  0.5836223436900915  0.6672428598255160  0.4991734738942809   T   T   T
  0.8338956923245427  0.6669469421858382  0.4997736779769781   T   T   T
  0.0833583633223612  0.9166415958420190  0.5000797819124435   T   T   T
  0.3332829955726637  0.9166411355162293  0.5000000000000000   T   T   F
  0.5833247510728953  0.9168496385960310  0.4999906847369408   T   T   T
  0.8335251298637948  0.9168499069954829  0.5000000000000000   T   T   F
  0.5000000000000000  0.5000000000000000  0.6149349616650223   F   F   T
 
  0.00000000E+00  0.00000000E+00  0.00000000E+00
  0.00000000E+00  0.00000000E+00  0.00000000E+00
  0.00000000E+00  0.00000000E+00  0.00000000E+00
  0.00000000E+00  0.00000000E+00  0.00000000E+00
  0.00000000E+00  0.00000000E+00  0.00000000E+00
  0.00000000E+00  0.00000000E+00  0.00000000E+00
  0.00000000E+00  0.00000000E+00  0.00000000E+00
  0.00000000E+00  0.00000000E+00  0.00000000E+00
  0.00000000E+00  0.00000000E+00  0.00000000E+00
  0.00000000E+00  0.00000000E+00  0.00000000E+00
  0.00000000E+00  0.00000000E+00  0.00000000E+00
  0.00000000E+00  0.00000000E+00  0.00000000E+00
  0.00000000E+00  0.00000000E+00  0.00000000E+00
  0.00000000E+00  0.00000000E+00  0.00000000E+00
  0.00000000E+00  0.00000000E+00  0.00000000E+00
  0.00000000E+00  0.00000000E+00  0.00000000E+00
  0.00000000E+00  0.00000000E+00  0.00000000E+00
  0.00000000E+00  0.00000000E+00  0.00000000E+00
  0.00000000E+00  0.00000000E+00  0.00000000E+00
  0.00000000E+00  0.00000000E+00  0.00000000E+00
  0.00000000E+00  0.00000000E+00  0.00000000E+00
  0.00000000E+00  0.00000000E+00  0.00000000E+00
  0.00000000E+00  0.00000000E+00  0.00000000E+00
  0.00000000E+00  0.00000000E+00  0.00000000E+00
  0.00000000E+00  0.00000000E+00  0.00000000E+00
  0.00000000E+00  0.00000000E+00  0.00000000E+00
  0.00000000E+00  0.00000000E+00  0.00000000E+00
  0.00000000E+00  0.00000000E+00  0.00000000E+00
  0.00000000E+00  0.00000000E+00  0.00000000E+00
  0.00000000E+00  0.00000000E+00  0.00000000E+00
  0.00000000E+00  0.00000000E+00  0.00000000E+00
  0.00000000E+00  0.00000000E+00  0.00000000E+00
  0.00000000E+00  0.00000000E+00  0.00000000E+00
